32      4       
13      18      13      15      
0       0       0       0       0       2       2       3       
8       10      0       0       4       3       4       5       6       
3       7       0       0       7       3       5       6       7       
9       0       13      0       1       3       7       9       13      
6       0       1       1       0       7       9       11      12      13      15      19      23      
3       1       0       7       0       5       8       14      19      20      24      
1       0       5       1       0       11      10      11      12      14      15      18      19      21      22      23      24      
4       0       1       4       0       10      10      11      12      13      15      16      17      21      22      23      
7       1       0       1       0       8       10      14      16      17      18      20      21      24      
6       1       9       0       0       5       25      26      27      28      31      
5       0       1       3       0       5       25      26      27      28      31      
10      0       1       0       1       5       25      26      27      28      31      
9       4       0       4       0       5       25      26      27      28      31      
1       0       3       6       0       4       26      27      28      31      
10      0       5       0       2       4       25      26      27      28      
3       6       0       0       4       4       25      26      28      31      
4       1       0       0       1       4       25      26      27      28      
3       0       0       3       5       4       25      26      28      31      
6       1       0       0       4       4       26      27      30      31      
8       1       1       0       0       4       26      27      30      31      
8       0       0       3       4       3       25      26      27      
6       6       0       0       1       3       25      26      27      
2       0       6       0       3       2       26      28      
9       1       8       0       0       2       25      27      
4       1       0       0       8       2       29      30      
5       0       7       6       0       1       29      
4       0       0       1       4       1       29      
1       0       1       1       0       1       30      
10      0       0       4       7       1       32      
1       5       0       4       0       1       32      
10      3       6       0       0       1       32      
0       0       0       0       0       0       
